solution status: optimal solution found
objective value:                    -9000.00000000001
C76379                                              1 	(obj:-1000)
delta_0_0_2                                         1 	(obj:0)
delta_0_1_1                                         1 	(obj:0)
delta_0_2_0                                         1 	(obj:0)
delta_2_0_0                                         1 	(obj:0)
delta_2_1_1                                         1 	(obj:0)
delta_2_2_2                                         1 	(obj:0)
delta_3_0_2                          1.00000000000001 	(obj:0)
delta_3_1_1                          1.00000000000002 	(obj:0)
delta_3_2_0                                         1 	(obj:0)
delta_4_0_2                                         1 	(obj:0)
delta_4_1_1                                         1 	(obj:0)
delta_4_2_0                                         1 	(obj:0)
delta_5_0_1                                         1 	(obj:0)
delta_5_1_2                                         1 	(obj:0)
delta_5_2_0                                         1 	(obj:0)
delta_6_0_1                                         1 	(obj:0)
delta_6_1_2                                         1 	(obj:0)
delta_6_2_0                                         1 	(obj:0)
delta_7_0_1                                         1 	(obj:0)
delta_7_1_0                                         1 	(obj:0)
delta_7_2_2                                         1 	(obj:0)
delta_8_0_1                                         1 	(obj:0)
delta_8_1_0                                         1 	(obj:0)
delta_8_2_2                                         1 	(obj:0)
delta_9_0_0                                         1 	(obj:0)
delta_9_1_1                                         1 	(obj:0)
delta_9_2_2                                         1 	(obj:0)
lambda_0_2_1                                        1 	(obj:0)
lambda_0_4_1                                        1 	(obj:0)
lambda_0_5_1                                        1 	(obj:0)
lambda_0_6_1                                        1 	(obj:0)
lambda_0_7_1                                        1 	(obj:0)
lambda_0_8_1                                        1 	(obj:0)
lambda_2_4_1                                        1 	(obj:0)
lambda_2_6_1                                        1 	(obj:0)
lambda_2_8_1                                        1 	(obj:0)
lambda_3_0_1                         1.00000000000001 	(obj:0)
lambda_3_2_1                                        1 	(obj:0)
lambda_3_4_1                                        1 	(obj:0)
lambda_3_5_1                                        1 	(obj:0)
lambda_3_6_1                                        1 	(obj:0)
lambda_3_7_1                                        1 	(obj:0)
lambda_3_8_1                                        1 	(obj:0)
lambda_4_6_1                                        1 	(obj:0)
lambda_4_8_1                                        1 	(obj:0)
lambda_5_2_1                                        1 	(obj:0)
lambda_5_4_1                                        1 	(obj:0)
lambda_5_6_1                                        1 	(obj:0)
lambda_5_8_1                                        1 	(obj:0)
lambda_7_2_1                                        1 	(obj:0)
lambda_7_4_1                                        1 	(obj:0)
lambda_7_5_1                                        1 	(obj:0)
lambda_7_6_1                                        1 	(obj:0)
lambda_7_8_1                                        1 	(obj:0)
lambda_8_6_1                                        1 	(obj:0)
lambda_9_0_1                                        1 	(obj:0)
lambda_9_2_1                                        1 	(obj:0)
lambda_9_3_1                         1.00000000000001 	(obj:0)
lambda_9_4_1                                        1 	(obj:0)
lambda_9_5_1                                        1 	(obj:0)
lambda_9_6_1                                        1 	(obj:0)
lambda_9_7_1                                        1 	(obj:0)
lambda_9_8_1                                        1 	(obj:0)
C76335                                              1 	(obj:-1000)
C76340                                              1 	(obj:-1000)
C76344                               1.00000000000001 	(obj:-1000)
C76349                                              1 	(obj:-1000)
C76355                                              1 	(obj:-1000)
C76362                                              1 	(obj:-1000)
C76370                                              1 	(obj:-1000)
C76389                                              1 	(obj:-1000)
pse_X_0_x                                           6 	(obj:0)
pse_X_0_y                            64.9999999999997 	(obj:0)
pse_X_0_z                                           6 	(obj:0)
pse_X_2_x                                           6 	(obj:0)
pse_X_2_y                            34.9999999999997 	(obj:0)
pse_X_2_z                                           6 	(obj:0)
C9                                                  6 	(obj:0)
C10                                  75.0000000000011 	(obj:0)
C11                                                 6 	(obj:0)
C12                                                 6 	(obj:0)
C13                                  24.9999999999997 	(obj:0)
C14                                                 6 	(obj:0)
C15                                                 5 	(obj:0)
C16                                  44.9999999999997 	(obj:0)
C17                                                 5 	(obj:0)
C18                                                 5 	(obj:0)
C19                                                 5 	(obj:0)
C20                                                 5 	(obj:0)
C21                                                 5 	(obj:0)
C22                                  54.9999999999997 	(obj:0)
C23                                                 5 	(obj:0)
C24                                                 5 	(obj:0)
C25                                  14.9999999999997 	(obj:0)
C26                                                 5 	(obj:0)
C27                                                 5 	(obj:0)
C28                                                85 	(obj:0)
C29                                                 5 	(obj:0)
